This is Ipopt version 3.10.1, running with linear solver mumps.

Number of nonzeros in equality constraint Jacobian...:      177
Number of nonzeros in inequality constraint Jacobian.:        0
Number of nonzeros in Lagrangian Hessian.............:     3324

Total number of variables............................:       90
                     variables with only lower bounds:        0
                variables with lower and upper bounds:       90
                     variables with only upper bounds:        0
Total number of equality constraints.................:       59
Total number of inequality constraints...............:        0
        inequality constraints with only lower bounds:        0
   inequality constraints with lower and upper bounds:        0
        inequality constraints with only upper bounds:        0

iter    objective    inf_pr   inf_du lg(mu)  ||d||  lg(rg) alpha_du alpha_pr  ls
   0 -1.6434368e-04 1.00e-02 1.24e-04  -1.0 0.00e+00    -  0.00e+00 0.00e+00   0
   1 -1.8870506e-04 2.36e-10 1.98e-03  -1.7 2.23e-02    -  9.84e-01 1.00e+00h  1
   2 -2.1229008e-04 6.66e-16 3.05e-03  -2.5 3.92e-02    -  9.76e-01 1.00e+00f  1
   3 -2.3257525e-04 2.22e-16 8.63e-04  -3.8 4.53e-02    -  9.52e-01 1.00e+00f  1
   4 -3.8974782e-04 5.00e-13 3.94e-04  -5.7 5.26e-02    -  8.20e-01 1.00e+00f  1
   5 -4.8830685e-04 2.22e-16 2.57e-04  -5.7 2.36e-02  -2.0 1.00e+00 1.00e+00f  1
   6 -2.3858453e-03 3.91e-13 3.08e-03  -5.7 3.68e-01  -2.5 9.14e-01 4.18e-01f  1
   7 -2.3804578e-03 3.91e-13 3.08e-03  -5.7 2.10e-01  -2.1 2.90e-02 9.77e-04f 11
   8 -2.3754451e-03 3.89e-13 3.08e-03  -5.7 2.52e+00  -1.6 2.78e-02 2.50e-04f 11
   9 -3.0980903e-03 2.22e-16 1.75e-03  -5.7 2.47e-02  -1.2 1.00e+00 1.00e+00f  1
iter    objective    inf_pr   inf_du lg(mu)  ||d||  lg(rg) alpha_du alpha_pr  ls
  10 -3.7611142e-03 2.22e-16 2.69e-02  -5.7 7.50e-01  -1.7 6.64e-01 2.32e-02f  1
  11 -6.0616307e-03 1.09e-12 3.85e-03  -5.7 5.39e-02  -1.3 1.00e+00 8.81e-01f  1
  12 -7.9231589e-03 1.52e-14 4.67e-03  -5.7 2.84e-02  -0.8 1.00e+00 9.86e-01f  1
  13 -1.0751642e-02 1.16e-12 3.97e-02  -5.7 3.43e-01  -1.3 1.00e+00 1.06e-01f  1
  14 -1.1304869e-02 1.31e-12 1.32e-02  -5.7 6.11e-02  -0.9 1.00e+00 9.81e-02f  1
  15 -1.2844233e-02 1.94e-12 4.16e-02  -5.7 8.40e-01  -1.4 2.88e-01 1.99e-02f  1
  16 -1.4086947e-02 2.54e-12 9.58e-03  -5.7 4.75e-02  -0.9 1.00e+00 3.50e-01f  1
  17 -1.7193584e-02 3.75e-12 2.68e-02  -5.7 4.07e-01  -1.4 5.29e-01 1.08e-01f  1
  18 -2.0320114e-02 4.00e-12 1.01e-02  -5.7 8.33e-02  -1.0 1.00e+00 4.23e-01f  1
  19 -9.7076052e-03 3.57e-12 3.05e-02  -5.7 2.00e+00  -1.5 6.48e-03 1.07e-01h  1
iter    objective    inf_pr   inf_du lg(mu)  ||d||  lg(rg) alpha_du alpha_pr  ls
  20 -1.0727832e-02 8.13e-13 6.12e-03  -5.7 3.96e-02  -1.0 1.00e+00 7.72e-01f  1
  21 -1.4609039e-02 2.51e-12 5.84e-03  -5.7 1.71e-01  -1.5 1.00e+00 5.20e-01f  1
  22 -1.6086954e-02 1.36e-12 5.32e-03  -5.7 6.18e-02  -1.1 8.17e-01 4.60e-01f  1
  23 -1.7604921e-02 2.22e-16 5.27e-03  -5.7 2.42e-02  -0.7 1.00e+00 1.00e+00f  1
  24 -2.1043375e-02 3.33e-16 7.14e-03  -5.7 1.11e-01  -1.1 1.00e+00 4.24e-01f  1
  25 -2.4265510e-02 1.84e-12 7.45e-03  -5.7 4.05e-02  -0.7 1.00e+00 8.81e-01f  1
  26 -3.7028852e-02 9.17e-13 2.53e-02  -5.7 2.21e-01  -1.2 1.67e-01 5.00e-01f  1
  27 -4.0542117e-02 7.28e-13 2.85e-02  -5.7 1.10e-01  -0.8 1.00e+00 2.07e-01f  1
  28 -4.4617964e-02 2.14e-13 1.36e-02  -5.7 3.25e-02  -0.3 1.00e+00 7.05e-01f  1
  29 -4.9208612e-02 2.48e-12 1.86e-02  -5.7 1.25e-01  -0.8 5.11e-01 1.76e-01f  1
iter    objective    inf_pr   inf_du lg(mu)  ||d||  lg(rg) alpha_du alpha_pr  ls
  30 -4.9207814e-02 2.48e-12 1.78e-02  -5.7 1.44e+00  -1.3 1.78e-03 4.55e-06f  8
  31 -4.9200326e-02 2.48e-12 1.44e-02  -5.7 7.10e+01  -0.9 6.29e-04 1.39e-06f  4
  32 -5.3147564e-02 4.42e-12 1.89e-02  -5.7 4.32e-02  -0.4 1.00e+00 4.86e-01f  1
  33 -5.8151360e-02 3.98e-12 6.14e-02  -5.7 2.64e-01  -0.9 5.72e-01 9.97e-02f  1
  34 -5.8885758e-02 4.43e-12 8.19e-02  -5.7 8.08e-01  -1.4 1.66e-01 9.88e-03f  1
  35 -6.0757057e-02 3.86e-12 6.62e-02  -5.7 1.21e-01  -1.0 4.06e-01 1.29e-01f  1
  36 -6.2833500e-02 4.90e-12 7.95e-02  -5.7 5.24e-01  -1.4 3.93e-01 4.12e-02f  1
  37 -6.4472264e-02 3.17e-12 2.71e-02  -5.7 4.23e-02  -1.0 8.16e-01 3.53e-01f  1
  38 -7.2489570e-02 2.78e-12 2.70e-02  -5.7 7.03e-01  -1.5 1.93e-01 1.23e-01f  1
  39 -8.6664493e-02 1.31e-11 3.32e-02  -5.7 1.16e-01  -1.1 3.33e-02 6.95e-01f  1
iter    objective    inf_pr   inf_du lg(mu)  ||d||  lg(rg) alpha_du alpha_pr  ls
  40 -1.0531302e-01 1.83e-11 4.94e-02  -5.7 6.92e-02  -0.6 9.18e-02 1.00e+00f  1
  41 -1.0502071e-01 1.82e-11 4.45e-02  -5.7 7.68e-01  -1.1 5.93e-02 6.98e-03h  1
  42 -1.4408901e-01 1.26e-11 7.24e-02  -5.7 3.38e-01  -0.7 1.56e-01 3.07e-01f  1
  43 -1.4591085e-01 1.26e-11 6.40e-02  -5.7 9.14e-02  -0.3 1.19e-01 5.67e-02f  1
  44 -1.4353494e-01 1.26e-11 7.49e-02  -5.7 1.90e+00  -0.7 1.57e-02 2.97e-03h  1
  45 -1.5394589e-01 1.07e-11 1.56e-01  -5.7 1.40e-01  -0.3 1.54e-02 1.50e-01f  1
  46 -1.5499827e-01 1.02e-11 1.46e-01  -5.7 3.99e-02   0.1 1.01e-01 5.14e-02f  1
  47 -1.6439339e-01 9.23e-12 1.08e-01  -5.7 2.01e-01  -0.4 3.26e-01 9.07e-02f  1
  48 -1.7245079e-01 6.58e-12 1.10e-01  -5.7 5.06e-02   0.1 7.95e-02 2.87e-01f  1
  49 -1.7319691e-01 6.78e-12 9.24e-02  -5.7 3.33e-01  -0.4 2.72e-01 3.92e-03f  1
iter    objective    inf_pr   inf_du lg(mu)  ||d||  lg(rg) alpha_du alpha_pr  ls
  50 -1.7319672e-01 6.78e-12 7.96e-02  -5.7 5.65e-01  -0.9 3.99e-02 6.28e-07f 20
  51 -1.8281289e-01 9.32e-12 1.23e-01  -5.7 3.78e-01  -0.5 2.93e-01 4.40e-02f  1
  52 -1.8869668e-01 8.13e-12 1.07e-01  -5.7 7.75e-02  -0.0 7.51e-02 1.27e-01f  1
  53 -2.0999983e-01 6.32e-12 8.48e-02  -5.7 1.86e-01  -0.5 1.45e-01 2.23e-01f  1
  54 -2.2415802e-01 4.62e-12 9.21e-02  -5.7 6.65e-02  -0.1 1.00e+00 2.69e-01f  1
  55 -2.7267524e-01 1.82e-11 4.30e-01  -5.7 3.85e-01  -0.6 1.00e+00 1.60e-01f  1
  56 -2.7267508e-01 1.82e-11 3.24e-01  -5.7 5.91e-01  -1.0 1.83e-01 5.61e-07h 19
  57 -2.9563581e-01 2.35e-11 1.18e+00  -5.7 2.76e+00  -0.6 3.58e-01 9.74e-03f  1
  58 -2.0102023e-01 1.22e-15 7.57e-01  -5.7 4.79e-01  -1.1 2.84e-01 1.00e+00h  1
  59 -2.2104035e-01 1.22e-15 5.26e-01  -5.7 1.58e+00  -1.6 6.13e-01 7.27e-02f  1
iter    objective    inf_pr   inf_du lg(mu)  ||d||  lg(rg) alpha_du alpha_pr  ls
  60 -2.4646474e-01 6.66e-16 1.76e-01  -5.7 9.26e-02  -0.2 9.06e-01 4.13e-01f  1
  61 -2.4009298e-01 6.66e-16 1.72e-01  -5.7 7.84e-01  -0.7 8.18e-02 1.45e-02h  3
  62 -2.5942732e-01 8.88e-16 1.23e-01  -5.7 4.91e-01  -1.2 2.40e-01 3.47e-01f  1
  63 -2.6789361e-01 8.88e-16 1.52e-01  -5.7 2.09e-01  -0.8 8.85e-01 7.24e-02f  1
  64 -2.6897789e-01 1.77e-11 8.62e-02  -5.7 4.61e-02  -0.3 6.55e-01 3.74e-01F  1
  65 -2.6897054e-01 1.77e-11 1.76e-01  -5.7 5.71e-02    -  5.75e-01 8.63e-04f  9
  66 -2.6479088e-01 1.02e-11 1.57e-01  -5.7 2.20e-01  -0.8 5.96e-02 4.25e-01h  1
  67 -2.6506252e-01 9.71e-12 1.59e-01  -5.7 3.03e-02  -0.4 1.00e+00 4.73e-02f  1
  68 -2.6505211e-01 9.57e-12 1.43e-01  -5.7 3.92e-02    -  3.48e-01 1.40e-02f  7
  69 -2.6596108e-01 2.18e-12 1.24e-01  -5.7 4.56e-03   0.0 2.07e-01 9.57e-01F  1
iter    objective    inf_pr   inf_du lg(mu)  ||d||  lg(rg) alpha_du alpha_pr  ls
  70 -2.6822136e-01 6.55e-13 4.66e-02  -5.7 2.94e-02  -0.5 1.00e+00 7.00e-01f  1
  71 -2.6821476e-01 6.54e-13 1.16e-01  -5.7 6.77e-02    -  5.56e-01 9.77e-04f 11
  72 -2.6671204e-01 4.87e-13 1.20e-01  -5.7 6.76e-02    -  1.91e-01 2.56e-01h  1
  73 -2.6670159e-01 4.86e-13 2.95e-01  -5.7 4.73e-02    -  4.63e-01 2.92e-03f  8
  74 -2.6761111e-01 4.44e-16 4.01e-02  -5.7 8.36e-03  -0.0 8.15e-01 1.00e+00f  1
  75 -2.7680617e-01 2.87e-11 1.86e-02  -5.7 5.42e-02  -0.5 1.00e+00 1.00e+00f  1
  76 -2.8569662e-01 1.56e-11 1.12e-01  -5.7 5.03e-01  -1.0 3.10e-01 4.58e-01h  1
  77 -4.1495022e-01 3.49e-11 1.97e-01  -5.7 6.42e-01  -0.6 6.40e-01 3.05e-01f  1
  78 -4.1489165e-01 3.49e-11 2.08e-01  -5.7 8.85e-02    -  1.00e+00 9.77e-04f 11
  79 -4.2832315e-01 4.98e-12 2.48e-02  -5.7 6.92e-02    -  1.00e+00 8.57e-01f  1
iter    objective    inf_pr   inf_du lg(mu)  ||d||  lg(rg) alpha_du alpha_pr  ls
  80 -4.2845721e-01 6.09e-11 1.46e-01  -5.7 5.36e-03    -  5.52e-01 1.00e+00f  1
  81 -4.2845517e-01 6.03e-11 7.62e-08  -5.7 1.14e-04    -  1.00e+00 1.00e+00h  1
  82 -4.2858393e-01 2.22e-16 4.81e-08  -8.6 7.49e-05    -  1.00e+00 1.00e+00f  1
  83 -4.2858389e-01 6.55e-12 4.97e-03  -8.6 1.66e-08    -  9.73e-01 1.00e+00h  1
  84 -4.2858389e-01 3.07e-12 9.50e-14  -8.6 3.25e-09    -  1.00e+00 1.00e+00h  1

Number of Iterations....: 84

                                   (scaled)                 (unscaled)
Objective...............:  -4.2858389337384728e-01   -4.2858389337384728e-01
Dual infeasibility......:   9.5042850461765091e-14    9.5042850461765091e-14
Constraint violation....:   3.0691005292737827e-12    3.0691005292737827e-12
Complementarity.........:   2.7718739677912639e-09    2.7718739677912639e-09
Overall NLP error.......:   2.7718739677912639e-09    2.7718739677912639e-09


Number of objective function evaluations             = 200
Number of objective gradient evaluations             = 85
Number of equality constraint evaluations            = 200
Number of inequality constraint evaluations          = 0
Number of equality constraint Jacobian evaluations   = 1
Number of inequality constraint Jacobian evaluations = 0
Number of Lagrangian Hessian evaluations             = 84
Total CPU secs in IPOPT (w/o function evaluations)   =      0.310
Total CPU secs in NLP function evaluations           =      2.830

EXIT: Optimal Solution Found.
